50
14305

308 922
509 61
223 279
501 992
177 767
920 433
866 857
203 348
116 544
743 906
935 575
905 301
838 952
883 389
366 305
348 520
480 879
592 627
923 5
152 444
224 576
542 442
442 680
424 493
359 911
772 955
770 789
15 47
630 470
597 688
907 451
607 535
752 957
424 275
143 592
598 429
888 99
307 75
116 968
766 905
16 282
678 950
886 616
281 711
427 449
499 730
951 54
428 147
655 893
135 218
